-1 42 69 3 71 38 68 46 63 67 83 44 95 
42 -1 37 80 95 87 43 92 99 85 21 33 68 
69 37 -1 79 69 81 19 59 64 58 87 69 49 
3 80 79 -1 74 2 93 63 75 8 76 36 88 
71 95 69 74 -1 89 49 50 91 13 63 34 53 
38 87 81 2 89 -1 54 86 17 40 83 14 75 
68 43 19 93 49 54 -1 49 100 14 12 2 7 
46 92 59 63 50 86 49 -1 62 36 95 43 88 
63 99 64 75 91 17 100 62 -1 50 57 65 35 
67 85 58 8 13 40 14 36 50 -1 57 14 12 
83 21 87 76 63 83 12 95 57 57 -1 90 5 
44 33 69 36 34 14 2 43 65 14 90 -1 76 
95 68 49 88 53 75 7 88 35 12 5 76 -1 
